qbf_easy_train/easy_1293_SAT.qdimacs
p cnf 20 45
a 2 18 7 0
e 1 3 4 5 6 8 9 10 11 12 13 14 15 16 17 19 20 0
-1 -2 -3 0
1 2 -3 0
-1 2 3 0
1 -2 3 0
5 4 0
5 -4 0
3 5 -6 0
-3 -5 -6 0
3 -5 6 0
-3 5 6 0
8 -7 0
8 2 0
7 -2 -8 0
11 9 0
11 -10 0
-9 10 -11 0
12 -1 0
12 -11 0
1 11 -12 0
-13 8 0
-13 -12 0
-8 12 13 0
14 15 -16 0
-14 -15 -16 0
14 -15 16 0
-14 15 16 0
17 13 0
17 16 0
-13 -16 -17 0
9 -1 -18 0
-9 1 -18 0
9 1 18 0
-9 -1 18 0
19 17 0
19 -18 0
-17 18 -19 0
-6 19 -20 0
6 -19 -20 0
-6 -19 20 0
6 19 20 0
-4 7 -17 -3 2 0
-1 2 -14 7 -5 0
14 17 10 -2 15 0
4 -9 -1 17 -14 6 0
20 0
