sat_easy_train/easy_1293_SAT.dimacs
p cnf 116 399
-3 1 0
-3 -2 0
-1 2 3 0
4 -5 -6 0
-4 5 -6 0
4 5 6 0
-4 -5 6 0
8 -1 0
8 -7 0
1 7 -8 0
-9 -6 0
-9 -8 0
6 8 9 0
-3 -9 -10 0
3 9 -10 0
-3 9 10 0
3 -9 10 0
-11 12 -13 0
11 -12 -13 0
-11 -12 13 0
11 12 13 0
4 -13 -14 0
-4 13 -14 0
4 13 14 0
-4 -13 14 0
-14 5 -15 0
14 -5 -15 0
-14 -5 15 0
14 5 15 0
16 15 0
16 11 0
-15 -11 -16 0
10 16 -17 0
-10 -16 -17 0
10 -16 17 0
-10 16 17 0
20 18 0
20 19 0
-18 -19 -20 0
22 6 0
22 -21 0
-6 21 -22 0
4 -22 -23 0
-4 22 -23 0
4 22 23 0
-4 -22 23 0
18 4 -24 0
-18 -4 -24 0
18 -4 24 0
-18 4 24 0
25 13 0
25 2 0
-13 -2 -25 0
26 -4 0
26 -25 0
4 25 -26 0
-27 -24 0
-27 26 0
24 -26 27 0
28 -23 0
28 -27 0
23 27 -28 0
-29 -20 0
-29 -28 0
20 28 29 0
30 2 0
30 21 0
-2 -21 -30 0
-31 -30 0
-31 -11 0
30 11 31 0
-32 31 0
-32 5 0
-31 -5 32 0
34 33 0
34 30 0
-33 -30 -34 0
-36 -34 0
-36 35 0
34 -35 36 0
-37 13 0
-37 -5 0
-13 5 37 0
38 -35 0
38 37 0
35 -37 -38 0
-39 -38 0
-39 37 0
38 -37 39 0
40 -36 0
40 -39 0
36 39 -40 0
41 -40 0
41 11 0
40 -11 -41 0
42 -32 0
42 -41 0
32 41 -42 0
29 42 -43 0
-29 -42 -43 0
29 -42 43 0
-29 42 43 0
44 -17 0
44 43 0
17 -43 -44 0
-18 45 -46 0
18 -45 -46 0
-18 -45 46 0
18 45 46 0
-47 46 0
-47 35 0
-46 -35 47 0
48 -5 0
48 -33 0
5 33 -48 0
45 46 -49 0
-45 -46 -49 0
45 -46 49 0
-45 46 49 0
49 -7 -50 0
-49 7 -50 0
49 7 50 0
-49 -7 50 0
-48 -50 -51 0
48 50 -51 0
-48 50 51 0
48 -50 51 0
-47 -51 -52 0
47 51 -52 0
-47 51 52 0
47 -51 52 0
-53 -13 0
-53 14 0
13 -14 53 0
54 30 0
54 -19 0
-30 19 -54 0
-55 53 0
-55 -54 0
-53 54 55 0
-56 -12 0
-56 38 0
12 -38 56 0
-57 -11 0
-57 21 0
11 -21 57 0
56 57 -58 0
-56 -57 -58 0
56 -57 58 0
-56 57 58 0
59 58 0
59 38 0
-58 -38 -59 0
-3 4 -60 0
3 -4 -60 0
-3 -4 60 0
3 4 60 0
60 -34 -61 0
-60 34 -61 0
60 34 61 0
-60 -34 61 0
-15 61 -62 0
15 -61 -62 0
-15 -61 62 0
15 61 62 0
-59 62 -63 0
59 -62 -63 0
-59 -62 63 0
59 62 63 0
64 -22 0
64 13 0
22 -13 -64 0
-31 64 -65 0
31 -64 -65 0
-31 -64 65 0
31 64 65 0
18 65 -66 0
-18 -65 -66 0
18 -65 66 0
-18 65 66 0
-67 -22 0
-67 -9 0
22 9 67 0
-5 -3 -68 0
5 3 -68 0
-5 3 68 0
5 -3 68 0
68 31 -69 0
-68 -31 -69 0
68 -31 69 0
-68 31 69 0
-70 51 0
-70 -69 0
-51 69 70 0
-71 67 0
-71 -70 0
-67 70 71 0
-37 71 -72 0
37 -71 -72 0
-37 -71 72 0
37 71 72 0
-66 72 -73 0
66 -72 -73 0
-66 -72 73 0
66 72 73 0
56 -9 -74 0
-56 9 -74 0
56 9 74 0
-56 -9 74 0
-75 -45 0
-75 -74 0
45 74 75 0
-73 -75 -76 0
73 75 -76 0
-73 75 76 0
73 -75 76 0
-77 56 0
-77 -7 0
-56 7 77 0
-77 11 -78 0
77 -11 -78 0
-77 -11 78 0
77 11 78 0
-79 57 0
-79 -78 0
-57 78 79 0
5 -31 -80 0
-5 31 -80 0
5 31 80 0
-5 -31 80 0
79 80 -81 0
-79 -80 -81 0
79 -80 81 0
-79 80 81 0
82 -30 0
82 34 0
30 -34 -82 0
-82 -83 -84 0
82 83 -84 0
-82 83 84 0
82 -83 84 0
85 -84 0
85 -67 0
84 67 -85 0
86 9 0
86 -13 0
-9 13 -86 0
87 31 0
87 19 0
-31 -19 -87 0
-86 87 -88 0
86 -87 -88 0
-86 -87 88 0
86 87 88 0
89 85 0
89 88 0
-85 -88 -89 0
81 89 -90 0
-81 -89 -90 0
81 -89 90 0
-81 89 90 0
76 90 -91 0
-76 -90 -91 0
76 -90 91 0
-76 90 91 0
-74 87 -92 0
74 -87 -92 0
-74 -87 92 0
74 87 92 0
24 30 -93 0
-24 -30 -93 0
24 -30 93 0
-24 30 93 0
92 -93 -94 0
-92 93 -94 0
92 93 94 0
-92 -93 94 0
-91 94 -95 0
91 -94 -95 0
-91 -94 95 0
91 94 95 0
63 95 -96 0
-63 -95 -96 0
63 -95 96 0
-63 95 96 0
97 55 0
97 96 0
-55 -96 -97 0
-35 45 -98 0
35 -45 -98 0
-35 -45 98 0
35 45 98 0
-99 21 0
-99 51 0
-21 -51 99 0
-100 -98 0
-100 -99 0
98 99 100 0
101 13 0
101 -57 0
-13 57 -101 0
100 101 -102 0
-100 -101 -102 0
100 -101 102 0
-100 101 102 0
103 57 -104 0
-103 -57 -104 0
103 -57 104 0
-103 57 104 0
105 -102 0
105 -104 0
102 104 -105 0
-106 21 0
-106 -83 0
-21 83 106 0
-13 106 -107 0
13 -106 -107 0
-13 -106 107 0
13 106 107 0
-109 -108 0
-109 19 0
108 -19 109 0
-107 -109 -110 0
107 109 -110 0
-107 109 110 0
107 -109 110 0
-25 34 -111 0
25 -34 -111 0
-25 -34 111 0
25 34 111 0
-112 -110 0
-112 -111 0
110 111 112 0
-105 -112 -113 0
105 112 -113 0
-105 112 113 0
105 -112 113 0
-114 97 0
-114 113 0
-97 -113 114 0
-115 -52 0
-115 -114 0
52 114 115 0
-116 -44 0
-116 -115 0
44 115 116 0
67 -55 0
-88 13 57 -54 -90 0
-37 -55 96 -12 0
17 38 0
52 -68 30 6 -38 99 0
-71 -40 55 36 114 -109 0
30 -6 49 18 -86 51 0
91 110 9 2 0
5 54 -110 0
-26 94 -97 0
113 56 -49 -84 -11 -101 0
9 26 -34 -63 0
1 -26 105 87 0
56 16 0
82 88 -65 0
-72 92 -78 -76 0
-11 -76 36 73 94 0
110 69 -37 -95 0
53 -101 -31 0
-84 14 53 15 65 -56 0
-5 72 100 -38 76 36 0
-47 -34 43 -106 0
88 -14 43 0
36 65 38 0
-79 98 -28 106 0
88 86 -89 -13 0
57 -10 53 -54 0
-93 -77 61 0
-96 40 0
36 -63 -107 57 0
73 28 0
104 -57 0
-39 53 -84 33 0
-48 112 71 18 -6 51 0
94 70 -4 50 0
-46 -52 -111 74 -33 98 0
58 -31 0
-7 -72 -79 -59 8 0
7 51 -26 -50 -101 0
37 -42 16 -84 93 -114 0
-52 116 -13 0
21 31 38 41 103 0
-106 -42 116 27 0
-37 59 116 0
-111 -68 0
-35 100 -51 0
47 10 97 0
71 -18 0
84 58 -9 -85 -52 0
9 -11 -90 29 -99 0
-20 -7 0
-81 -9 -44 55 0
116 0
